p cnf 20 39
-1 0
-2 0
20 0
3 4 0
-3 -4 0
-3 -1 10 0
-3 1 -5 10 0
-3 1 5 -10 0
-4 -1 -2 -8 10 0
-4 -1 -2 8 -10 0
-4 -1 2 -11 10 0
-4 -1 2 11 -9 10 0
-4 -1 2 11 9 -10 0
-4 1 -10 0
-3 -2 11 0
-3 2 -11 0
-4 -2 11 0
-4 2 -1 -6 11 0
-4 2 -1 6 -11 0
-4 2 1 -7 11 0
-4 2 1 7 -11 0
12 13 0
-12 -13 0
-12 -10 19 0
-12 10 -14 19 0
-12 10 14 -19 0
-13 -10 -11 -17 19 0
-13 -10 -11 17 -19 0
-13 -10 11 -20 19 0
-13 -10 11 20 -18 19 0
-13 -10 11 20 18 -19 0
-13 10 -19 0
-12 -11 20 0
-12 11 -20 0
-13 -11 20 0
-13 11 -10 -15 20 0
-13 11 -10 15 -20 0
-13 11 10 -16 20 0
-13 11 10 16 -20 0
